Traveling Salesman Problem/TSP_generados/Aleatorio1621103364_12.tsp
NAME: Aleatorio1621103364_12.tsp
COMMENT: Randomly generated scenario
TYPE: TSP
DIMENSION: 12
EDGE_WEIGHT_TYPE: ATT
NODE_COORD_SECTION
1 48.52 23.43
2 3.2 37.23
3 15.59 15.04
4 20.57 5.99
5 21.13 28.02
6 1.66 27.62
7 40.39 12.87
8 10.1 4.51
9 18.62 45.78
10 30.56 13.12
11 26.01 29.16
12 26.57 42.31
