Traveling Salesman Problem/TSP_generados/Aleatorio1621103364_12.opt.tour
NAME: Aleatorio1621103364_12.opt.tour
COMMENT: Optimal solution for Aleatorio1621103364_12 (156.22101280395896)
TYPE: TOUR
DIMENSION: 12
TOUR_SECTION
1 11 5 12 9 2 6 3 8 4 10 7
-1
EOF
